(set-info :smt-lib-version 2.6)
(set-logic UF)
(set-info :source |
Generated by: David Deharbe, CLEARSY
Generated on: 2019-09-09
Generator: bxml;pog;pog2smt (Atelier B)
Application: B-method
Target solver: CVC4, Z3
|)
(set-info :license "https://creativecommons.org/licenses/by-nc/4.0/")
(set-info :category "industrial")
(set-info :status sat)
; Prelude
(declare-sort U 0)
(declare-fun |*i| (U U) U)
(declare-fun |+i| (U U) U)
(declare-fun |-i| (U U) U)
(declare-fun idiv (U U) U)
(declare-fun |*r| (U U) U)
(declare-fun |+r| (U U) U)
(declare-fun |-r| (U U) U)
(declare-fun rdiv (U U) U)
(declare-fun modulo (U U) U)
(declare-fun |<i| (U U) Bool)
(declare-fun |<=i| (U U) Bool)
(declare-fun |>i| (U U) Bool)
(declare-fun |>=i| (U U) Bool)
(declare-fun |<r| (U U) Bool)
(declare-fun |<=r| (U U) Bool)
(declare-fun |>r| (U U) Bool)
(declare-fun |>=r| (U U) Bool)
(declare-fun iuminus (U) U)
(declare-fun ruminus (U) U)
(declare-fun TRUE () U)
(declare-fun FALSE () U)
(assert (not (= TRUE FALSE)))
(declare-fun empty () U)
(declare-fun bool (Bool) U)
(declare-fun BOOL () U)
(declare-fun INT () U)
(declare-fun INTEGER () U)
(declare-fun NAT () U)
(declare-fun NAT1 () U)
(declare-fun NATURAL () U)
(declare-fun NATURAL1 () U)
(declare-fun FLOAT () U)
(declare-fun MaxInt () U)
(declare-fun MinInt () U)
(declare-fun |STRING| () U)
(declare-fun REAL () U)
(declare-fun set_prod (U U) U)
(declare-fun set_diff (U U) U)
(declare-fun mapplet (U U) U)
(declare-fun |**i| (U U) U)
(declare-fun |**r| (U U) U)
(declare-fun |+->| (U U) U)
(declare-fun |+->>| (U U) U)
(declare-fun |-->| (U U) U)
(declare-fun |-->>| (U U) U)
(declare-fun |<->| (U U) U)
(declare-fun |>+>| (U U) U)
(declare-fun |>->| (U U) U)
(declare-fun |>+>>| (U U) U)
(declare-fun |>->>| (U U) U)
(declare-fun |->| (U U) U)
(declare-fun interval (U U) U)
(declare-fun composition (U U) U)
(declare-fun binary_inter (U U) U)
(declare-fun restriction_head (U U) U)
(declare-fun semicolon (U U) U)
(declare-fun |<+| (U U) U)
(declare-fun |<-| (U U) U)
(declare-fun domain_subtraction (U U) U)
(declare-fun domain_restriction (U U) U)
(declare-fun |><| (U U) U)
(declare-fun parallel_product (U U) U)
(declare-fun binary_union (U U) U)
(declare-fun restriction_tail (U U) U)
(declare-fun concatenate (U U) U)
(declare-fun range_restriction (U U) U)
(declare-fun range_subtraction (U U) U)
(declare-fun image (U U) U)
(declare-fun apply (U U) U)
(declare-fun prj1 (U U) U)
(declare-fun prj2 (U U) U)
(declare-fun iterate (U U) U)
(declare-fun |const| (U U) U)
(declare-fun rank (U U) U)
(declare-fun father (U U) U)
(declare-fun subtree (U U) U)
(declare-fun arity (U U) U)
(declare-fun |+f| (U U) U)
(declare-fun |-f| (U U) U)
(declare-fun |*f| (U U) U)
(declare-fun |fdiv| (U U) U)
(declare-fun tbin (U U U) U)
(declare-fun son (U U U) U)
(declare-fun mem (U U) Bool)
(declare-fun subset (U U) Bool)
(declare-fun strict_subset (U U) Bool)
(declare-fun |<=f| (U U) Bool)
(declare-fun |<f| (U U) Bool)
(declare-fun |>=f| (U U) Bool)
(declare-fun |>f| (U U) Bool)
(declare-fun imax (U) U)
(declare-fun imin (U) U)
(declare-fun rmax (U) U)
(declare-fun rmin (U) U)
(declare-fun card (U) U)
(declare-fun dom (U) U)
(declare-fun ran (U) U)
(declare-fun POW (U) U)
(declare-fun POW1 (U) U)
(declare-fun FIN (U) U)
(declare-fun FIN1 (U) U)
(declare-fun union (U) U)
(declare-fun inter (U) U)
(declare-fun seq (U) U)
(declare-fun seq1 (U) U)
(declare-fun iseq (U) U)
(declare-fun iseq1 (U) U)
(declare-fun inverse (U) U)
(declare-fun size (U) U)
(declare-fun perm (U) U)
(declare-fun first (U) U)
(declare-fun last (U) U)
(declare-fun id (U) U)
(declare-fun closure (U) U)
(declare-fun closure1 (U) U)
(declare-fun tail (U) U)
(declare-fun front (U) U)
(declare-fun reverse (U) U)
(declare-fun rev (U) U)
(declare-fun conc (U) U)
(declare-fun succ (U) U)
(declare-fun pred (U) U)
(declare-fun rel (U) U)
(declare-fun fnc (U) U)
(declare-fun real (U) U)
(declare-fun floor (U) U)
(declare-fun ceiling (U) U)
(declare-fun tree (U) U)
(declare-fun btree (U) U)
(declare-fun top (U) U)
(declare-fun sons (U) U)
(declare-fun prefix (U) U)
(declare-fun postfix (U) U)
(declare-fun sizet (U) U)
(declare-fun mirror (U) U)
(declare-fun left (U) U)
(declare-fun right (U) U)
(declare-fun infix (U) U)
(declare-fun ubin (U) U)
(declare-fun SEQ (U) U)
(declare-fun SET (U) U)
; Opaque formulas
(declare-fun e0 () U)
(declare-fun e12 () U)
(declare-fun e220 () U)
(declare-fun e222 () U)
(declare-fun e224 () U)
(declare-fun e226 () U)
(declare-fun e228 () U)
(declare-fun e230 () U)
(declare-fun e232 () U)
(declare-fun e234 () U)
(declare-fun e236 () U)
(declare-fun e238 () U)
(declare-fun e240 () U)
(declare-fun e242 () U)
(declare-fun e244 () U)
(declare-fun e246 () U)
(declare-fun e248 () U)
(declare-fun e250 () U)
(declare-fun e252 () U)
(declare-fun e254 () U)
(declare-fun e256 () U)
(declare-fun e258 () U)
(declare-fun e260 () U)
(declare-fun e262 () U)
(declare-fun e264 () U)
(declare-fun e266 () U)
(declare-fun e268 () U)
(declare-fun e270 () U)
(declare-fun e272 () U)
(declare-fun e274 () U)
(declare-fun e276 () U)
(declare-fun e278 () U)
(declare-fun e280 () U)
(declare-fun e282 () U)
(declare-fun e284 () U)
(declare-fun e286 () U)
(declare-fun e288 () U)
(declare-fun e290 () U)
(declare-fun e292 () U)
(declare-fun e294 () U)
(declare-fun e296 () U)
(declare-fun e298 () U)
(declare-fun e300 () U)
(declare-fun e302 () U)
(declare-fun e304 () U)
(declare-fun e306 () U)
(declare-fun e308 () U)
(declare-fun e310 () U)
(declare-fun e312 () U)
(declare-fun e314 () U)
(declare-fun e316 () U)
(declare-fun e318 () U)
(declare-fun e320 () U)
(declare-fun e322 () U)
(declare-fun e324 () U)
(declare-fun e326 () U)
(declare-fun e328 () U)
(declare-fun e330 () U)
(declare-fun e332 () U)
(declare-fun e334 () U)
(declare-fun g_s0_1 () U)
(declare-fun g_s1_2 () U)
(declare-fun g_s10_11 () U)
(declare-fun g_s100_101 () U)
(declare-fun g_s101_102 () U)
(declare-fun g_s102_103 () U)
(declare-fun g_s103_104 () U)
(declare-fun g_s104_105 () U)
(declare-fun g_s105_106 () U)
(declare-fun g_s106_107 () U)
(declare-fun g_s107_108 () U)
(declare-fun g_s108_109 () U)
(declare-fun g_s109_110 () U)
(declare-fun g_s11_13 () U)
(declare-fun g_s110_111 () U)
(declare-fun g_s111_112 () U)
(declare-fun g_s112_113 () U)
(declare-fun g_s113_114 () U)
(declare-fun g_s114_115 () U)
(declare-fun g_s115_116 () U)
(declare-fun g_s116_117 () U)
(declare-fun g_s117_118 () U)
(declare-fun g_s118_119 () U)
(declare-fun g_s119_120 () U)
(declare-fun g_s12_14 () U)
(declare-fun g_s120_121 () U)
(declare-fun g_s121_122 () U)
(declare-fun g_s122_123 () U)
(declare-fun g_s123_124 () U)
(declare-fun g_s124_125 () U)
(declare-fun g_s125_126 () U)
(declare-fun g_s126_127 () U)
(declare-fun g_s127_128 () U)
(declare-fun g_s128_129 () U)
(declare-fun g_s129_130 () U)
(declare-fun g_s13_15 () U)
(declare-fun g_s130_131 () U)
(declare-fun g_s131_132 () U)
(declare-fun g_s132_133 () U)
(declare-fun g_s133_134 () U)
(declare-fun g_s134_135 () U)
(declare-fun g_s135_136 () U)
(declare-fun g_s136_137 () U)
(declare-fun g_s137_138 () U)
(declare-fun g_s138_139 () U)
(declare-fun g_s139_140 () U)
(declare-fun g_s14_16 () U)
(declare-fun g_s140_141 () U)
(declare-fun g_s141_142 () U)
(declare-fun g_s142_145 () U)
(declare-fun g_s143_144 () U)
(declare-fun g_s144_143 () U)
(declare-fun g_s145_146 () U)
(declare-fun g_s146_147 () U)
(declare-fun g_s147_149 () U)
(declare-fun g_s148_148 () U)
(declare-fun g_s149_150 () U)
(declare-fun g_s15_17 () U)
(declare-fun g_s150_151 () U)
(declare-fun g_s151_152 () U)
(declare-fun g_s152_153 () U)
(declare-fun g_s153_154 () U)
(declare-fun g_s154_155 () U)
(declare-fun g_s155_156 () U)
(declare-fun g_s156_157 () U)
(declare-fun g_s157_159 () U)
(declare-fun g_s158_158 () U)
(declare-fun g_s159_160 () U)
(declare-fun g_s16_18 () U)
(declare-fun g_s160_161 () U)
(declare-fun g_s161_163 () U)
(declare-fun g_s162_162 () U)
(declare-fun g_s163_164 () U)
(declare-fun g_s164_165 () U)
(declare-fun g_s165_166 () U)
(declare-fun g_s166_167 () U)
(declare-fun g_s167_169 () U)
(declare-fun g_s168_168 () U)
(declare-fun g_s169_170 () U)
(declare-fun g_s17_19 () U)
(declare-fun g_s170_171 () U)
(declare-fun g_s171_172 () U)
(declare-fun g_s172_173 () U)
(declare-fun g_s173_174 () U)
(declare-fun g_s174_175 () U)
(declare-fun g_s175_177 () U)
(declare-fun g_s176_176 () U)
(declare-fun g_s177_178 () U)
(declare-fun g_s178_180 () U)
(declare-fun g_s179_179 () U)
(declare-fun g_s18_20 () U)
(declare-fun g_s180_181 () U)
(declare-fun g_s181_182 () U)
(declare-fun g_s182_183 () U)
(declare-fun g_s183_184 () U)
(declare-fun g_s184_186 () U)
(declare-fun g_s185_185 () U)
(declare-fun g_s186_187 () U)
(declare-fun g_s187_188 () U)
(declare-fun g_s188_189 () U)
(declare-fun g_s189_190 () U)
(declare-fun g_s19_21 () U)
(declare-fun g_s190_192 () U)
(declare-fun g_s191_191 () U)
(declare-fun g_s192_193 () U)
(declare-fun g_s193_194 () U)
(declare-fun g_s194_195 () U)
(declare-fun g_s195_196 () U)
(declare-fun g_s196_198 () U)
(declare-fun g_s197_197 () U)
(declare-fun g_s198_199 () U)
(declare-fun g_s199_200 () U)
(declare-fun g_s2_3 () U)
(declare-fun g_s20_22 () U)
(declare-fun g_s200_201 () U)
(declare-fun g_s201_203 () U)
(declare-fun g_s202_202 () U)
(declare-fun g_s203_204 () U)
(declare-fun g_s204_206 () U)
(declare-fun g_s205_205 () U)
(declare-fun g_s206_207 () U)
(declare-fun g_s207_209 () U)
(declare-fun g_s208_208 () U)
(declare-fun g_s209_210 () U)
(declare-fun g_s21_23 () U)
(declare-fun g_s210_211 () U)
(declare-fun g_s211_213 () U)
(declare-fun g_s212_212 () U)
(declare-fun g_s213_214 () U)
(declare-fun g_s214_215 () U)
(declare-fun g_s215_216 () U)
(declare-fun g_s216_217 () U)
(declare-fun g_s217_218 () U)
(declare-fun g_s218_219 () U)
(declare-fun g_s219_221 () U)
(declare-fun g_s22_24 () U)
(declare-fun g_s220_223 () U)
(declare-fun g_s221_225 () U)
(declare-fun g_s222_227 () U)
(declare-fun g_s223_229 () U)
(declare-fun g_s224_231 () U)
(declare-fun g_s225_233 () U)
(declare-fun g_s226_235 () U)
(declare-fun g_s227_237 () U)
(declare-fun g_s228_239 () U)
(declare-fun g_s229_241 () U)
(declare-fun g_s23_25 () U)
(declare-fun g_s230_243 () U)
(declare-fun g_s231_245 () U)
(declare-fun g_s232_247 () U)
(declare-fun g_s233_249 () U)
(declare-fun g_s234_251 () U)
(declare-fun g_s235_253 () U)
(declare-fun g_s236_255 () U)
(declare-fun g_s237_257 () U)
(declare-fun g_s238_259 () U)
(declare-fun g_s239_261 () U)
(declare-fun g_s24_26 () U)
(declare-fun g_s240_263 () U)
(declare-fun g_s241_265 () U)
(declare-fun g_s242_267 () U)
(declare-fun g_s243_269 () U)
(declare-fun g_s244_271 () U)
(declare-fun g_s245_273 () U)
(declare-fun g_s246_275 () U)
(declare-fun g_s247_277 () U)
(declare-fun g_s248_279 () U)
(declare-fun g_s249_281 () U)
(declare-fun g_s25_27 () U)
(declare-fun g_s250_283 () U)
(declare-fun g_s251_285 () U)
(declare-fun g_s252_287 () U)
(declare-fun g_s253_289 () U)
(declare-fun g_s254_291 () U)
(declare-fun g_s255_293 () U)
(declare-fun g_s256_295 () U)
(declare-fun g_s257_297 () U)
(declare-fun g_s258_299 () U)
(declare-fun g_s259_301 () U)
(declare-fun g_s26_28 () U)
(declare-fun g_s260_303 () U)
(declare-fun g_s261_305 () U)
(declare-fun g_s262_307 () U)
(declare-fun g_s263_309 () U)
(declare-fun g_s264_311 () U)
(declare-fun g_s265_313 () U)
(declare-fun g_s266_315 () U)
(declare-fun g_s267_317 () U)
(declare-fun g_s268_319 () U)
(declare-fun g_s269_321 () U)
(declare-fun g_s27_29 () U)
(declare-fun g_s270_323 () U)
(declare-fun g_s271_325 () U)
(declare-fun g_s272_327 () U)
(declare-fun g_s273_329 () U)
(declare-fun g_s274_331 () U)
(declare-fun g_s275_333 () U)
(declare-fun g_s276_335 () U)
(declare-fun g_s278_337 () U)
(declare-fun g_s279_336 () U)
(declare-fun g_s28_30 () U)
(declare-fun g_s280_338 () U)
(declare-fun g_s281_339 () U)
(declare-fun g_s282_340 () U)
(declare-fun g_s283_341 () U)
(declare-fun g_s284_343 () U)
(declare-fun g_s285_342 () U)
(declare-fun g_s286_344 () U)
(declare-fun g_s287_345 () U)
(declare-fun g_s288_346 () U)
(declare-fun g_s289_347 () U)
(declare-fun g_s29_31 () U)
(declare-fun g_s290_348 () U)
(declare-fun g_s291_349 () U)
(declare-fun g_s292_350 () U)
(declare-fun g_s293_351 () U)
(declare-fun g_s294_352 () U)
(declare-fun g_s295_354 () U)
(declare-fun g_s296_353 () U)
(declare-fun g_s297_356 () U)
(declare-fun g_s298_355 () U)
(declare-fun g_s299_357 () U)
(declare-fun g_s3_4 () U)
(declare-fun g_s30_32 () U)
(declare-fun g_s300_358 () U)
(declare-fun g_s301$1_359 () U)
(declare-fun g_s303_360 () U)
(declare-fun g_s303$1_361 () U)
(declare-fun g_s304_362 () U)
(declare-fun g_s305_363 () U)
(declare-fun g_s31_33 () U)
(declare-fun g_s32_34 () U)
(declare-fun g_s33_35 () U)
(declare-fun g_s34_36 () U)
(declare-fun g_s35_37 () U)
(declare-fun g_s36_38 () U)
(declare-fun g_s37_39 () U)
(declare-fun g_s38_40 () U)
(declare-fun g_s39_41 () U)
(declare-fun g_s4_5 () U)
(declare-fun g_s40_42 () U)
(declare-fun g_s41_43 () U)
(declare-fun g_s42_44 () U)
(declare-fun g_s43_45 () U)
(declare-fun g_s44_46 () U)
(declare-fun g_s45_47 () U)
(declare-fun g_s46_48 () U)
(declare-fun g_s47_49 () U)
(declare-fun g_s48_50 () U)
(declare-fun g_s5_6 () U)
(declare-fun g_s51_52 () U)
(declare-fun g_s52_53 () U)
(declare-fun g_s53_54 () U)
(declare-fun g_s54_55 () U)
(declare-fun g_s55_56 () U)
(declare-fun g_s56_57 () U)
(declare-fun g_s57_58 () U)
(declare-fun g_s58_59 () U)
(declare-fun g_s59_60 () U)
(declare-fun g_s6_7 () U)
(declare-fun g_s60_61 () U)
(declare-fun g_s61_62 () U)
(declare-fun g_s62_63 () U)
(declare-fun g_s63_64 () U)
(declare-fun g_s64_65 () U)
(declare-fun g_s65_66 () U)
(declare-fun g_s66_67 () U)
(declare-fun g_s67_68 () U)
(declare-fun g_s68_69 () U)
(declare-fun g_s69_70 () U)
(declare-fun g_s7_8 () U)
(declare-fun g_s70_71 () U)
(declare-fun g_s71_72 () U)
(declare-fun g_s72_73 () U)
(declare-fun g_s73_74 () U)
(declare-fun g_s74_75 () U)
(declare-fun g_s75_76 () U)
(declare-fun g_s76_77 () U)
(declare-fun g_s77_78 () U)
(declare-fun g_s78_79 () U)
(declare-fun g_s79_80 () U)
(declare-fun g_s8_10 () U)
(declare-fun g_s80_81 () U)
(declare-fun g_s81_82 () U)
(declare-fun g_s82_83 () U)
(declare-fun g_s83_85 () U)
(declare-fun g_s84_84 () U)
(declare-fun g_s85_86 () U)
(declare-fun g_s86_87 () U)
(declare-fun g_s87_88 () U)
(declare-fun g_s88_89 () U)
(declare-fun g_s89_90 () U)
(declare-fun g_s9_9 () U)
(declare-fun g_s90_91 () U)
(declare-fun g_s91_92 () U)
(declare-fun g_s92_93 () U)
(declare-fun g_s93_94 () U)
(declare-fun g_s94_95 () U)
(declare-fun g_s95_96 () U)
(declare-fun g_s96_97 () U)
(declare-fun g_s97_98 () U)
(declare-fun g_s98_99 () U)
(declare-fun g_s99_100 () U)
(declare-fun e51 () U)
; Defines
(define-fun |def_B definitions| () Bool (and (= NAT (interval e0 MaxInt)) (= INT (interval MinInt MaxInt))))
(define-fun |def_ctx| () Bool (and (not (= g_s0_1 empty)) (not (= g_s1_2 empty)) (not (= g_s2_3 empty)) (not (= g_s3_4 empty)) (not (= g_s4_5 empty)) (not (= g_s5_6 empty)) (not (= g_s6_7 empty)) (not (= g_s7_8 empty)) (= g_s8_10 (interval (iuminus g_s9_9) g_s9_9)) (= g_s10_11 (interval e0 g_s9_9)) (= g_s11_13 (interval e12 g_s9_9)) (subset g_s11_13 g_s10_11) (subset g_s10_11 g_s8_10) (subset g_s10_11 NAT) (subset g_s11_13 NAT1) (subset g_s8_10 INT) (mem g_s12_14 g_s8_10) (mem g_s12_14 g_s10_11) (not (mem g_s12_14 g_s11_13)) (mem g_s13_15 g_s8_10) (not (mem g_s13_15 g_s10_11)) (= g_s14_16 (interval (iuminus g_s9_9) g_s9_9)) (subset g_s14_16 INT) (subset g_s15_17 g_s0_1) (mem g_s16_18 g_s0_1) (mem g_s16_18 g_s15_17) (mem g_s17_19 g_s0_1) (not (mem g_s17_19 g_s15_17)) (mem g_s18_20 (|+->| NAT g_s0_1)) (mem g_s18_20 (perm g_s15_17)) (= (card g_s15_17) g_s19_21) (subset g_s20_22 g_s1_2) (mem g_s21_23 g_s1_2) (mem g_s21_23 g_s20_22) (mem g_s22_24 g_s1_2) (not (mem g_s22_24 g_s20_22)) (mem g_s23_25 (|+->| NAT g_s1_2)) (mem g_s23_25 (perm g_s20_22)) (= (card g_s20_22) g_s24_26) (mem g_s25_27 (|+->| (set_prod g_s14_16 g_s14_16) g_s14_16)) (subset g_s26_28 g_s14_16) (mem g_s27_29 (|-->| (set_prod g_s10_11 g_s10_11) g_s14_16)) (mem g_s28_30 (|+->| (set_prod g_s10_11 g_s14_16) g_s10_11)) (mem g_s29_31 (|-->| (set_prod g_s10_11 g_s14_16) g_s10_11)) (mem g_s30_32 (|-->| (set_prod g_s10_11 g_s14_16) (POW g_s10_11))) (mem g_s31_33 (|-->| (set_prod g_s10_11 g_s10_11) (POW g_s10_11))) (mem g_s32_34 (|-->| (set_prod g_s10_11 g_s10_11) (POW g_s10_11))) (mem g_s33_35 (|-->| (set_prod g_s10_11 g_s10_11) (POW g_s10_11))) (mem g_s34_36 (|-->| (set_prod g_s10_11 g_s10_11) (POW g_s10_11))) (mem g_s35_37 (|<->| g_s10_11 g_s10_11)) (mem g_s36_38 (|<->| g_s10_11 g_s10_11)) (mem g_s37_39 (|<->| (set_prod g_s10_11 g_s14_16) g_s10_11)) (mem g_s38_40 (|<->| (set_prod g_s10_11 g_s14_16) g_s10_11)) (mem g_s39_41 (|<->| (set_prod g_s10_11 g_s14_16) g_s10_11)) (mem g_s40_42 (|<->| (set_prod g_s10_11 g_s14_16) g_s10_11)) (mem g_s41_43 (|<->| g_s10_11 g_s10_11)) (mem g_s42_44 (|<->| g_s10_11 g_s10_11)) (mem g_s43_45 (|<->| (set_prod g_s10_11 g_s14_16) g_s10_11)) (mem g_s44_46 (|<->| (set_prod g_s10_11 g_s14_16) g_s10_11)) (mem g_s45_47 (|<->| (set_prod g_s10_11 g_s14_16) g_s10_11)) (mem g_s46_48 (|<->| (set_prod g_s10_11 g_s14_16) g_s10_11)) (mem g_s47_49 (|-->| (set_prod g_s10_11 g_s10_11) g_s10_11)) (mem g_s48_50 (|-->| (set_prod g_s10_11 g_s10_11) g_s10_11)) (= (dom g_s28_30) (set_prod g_s10_11 (interval e0 g_s9_9))) (= (dom g_s25_27) e51) (subset g_s51_52 g_s2_3) (mem g_s52_53 g_s2_3) (not (mem g_s52_53 g_s51_52)) (mem g_s53_54 (|+->| NAT g_s2_3)) (mem g_s53_54 (perm g_s51_52)) (subset g_s54_55 g_s3_4) (mem g_s55_56 g_s3_4) (not (mem g_s55_56 g_s54_55)) (mem g_s56_57 (|+->| NAT g_s3_4)) (mem g_s56_57 (perm g_s54_55)) (subset g_s57_58 g_s4_5) (mem g_s58_59 g_s4_5) (not (mem g_s58_59 g_s57_58)) (mem g_s59_60 (|+->| NAT g_s4_5)) (mem g_s59_60 (perm g_s57_58)) (subset g_s60_61 g_s5_6) (mem g_s61_62 g_s5_6) (not (mem g_s61_62 g_s60_61)) (mem g_s62_63 (|+->| NAT g_s5_6)) (mem g_s62_63 (perm g_s60_61)) (mem g_s63_64 (|>->| g_s51_52 g_s20_22)) (subset g_s64_65 g_s6_7) (mem g_s65_66 g_s6_7) (not (mem g_s65_66 g_s64_65)) (mem g_s66_67 (|+->| NAT g_s6_7)) (mem g_s66_67 (perm g_s64_65)) (subset g_s67_68 g_s6_7) (mem g_s68_69 g_s6_7) (not (mem g_s68_69 g_s67_68)) (mem g_s69_70 (|+->| NAT g_s6_7)) (mem g_s69_70 (perm g_s67_68)) (subset g_s70_71 g_s6_7) (mem g_s71_72 g_s6_7) (not (mem g_s71_72 g_s70_71)) (mem g_s72_73 (|+->| NAT g_s6_7)) (mem g_s72_73 (perm g_s70_71)) (subset g_s67_68 g_s70_71) (subset g_s64_65 g_s67_68) (subset g_s73_74 g_s7_8) (mem g_s74_75 g_s7_8) (not (mem g_s74_75 g_s73_74)) (mem g_s75_76 (|+->| NAT g_s7_8)) (mem g_s75_76 (perm g_s73_74)) (subset g_s76_77 g_s7_8) (mem g_s77_78 g_s7_8) (not (mem g_s77_78 g_s76_77)) (mem g_s78_79 (|+->| NAT g_s7_8)) (mem g_s78_79 (perm g_s76_77)) (subset g_s73_74 g_s76_77) (mem g_s79_80 g_s14_16) (|>i| g_s79_80 e0) (mem g_s80_81 g_s14_16) (|>i| g_s80_81 e0) (mem g_s81_82 g_s14_16) (|>i| g_s81_82 e0) (mem g_s82_83 g_s14_16) (|>i| g_s82_83 e0) (mem g_s83_85 g_s84_84) (mem g_s85_86 g_s84_84) (mem g_s86_87 g_s84_84) (mem g_s87_88 g_s14_16) (|>i| g_s87_88 e0) (mem g_s88_89 g_s84_84) (mem g_s89_90 g_s14_16) (|>i| g_s89_90 e0) (mem g_s90_91 g_s14_16) (|>i| g_s90_91 e0) (mem g_s91_92 g_s14_16) (|>i| g_s91_92 e0) (mem g_s92_93 g_s14_16) (|>i| g_s92_93 e0) (mem g_s93_94 g_s14_16) (|>i| g_s93_94 e0) (mem g_s94_95 g_s14_16) (|>i| g_s94_95 e0) (mem g_s95_96 g_s14_16) (|>i| g_s95_96 e0) (mem g_s96_97 g_s14_16) (|>i| g_s96_97 e0) (mem g_s97_98 g_s14_16) (|>i| g_s97_98 e0) (mem g_s98_99 g_s14_16) (|>i| g_s98_99 e0) (mem g_s99_100 g_s14_16) (|>i| g_s99_100 e0) (mem g_s100_101 g_s14_16) (|>i| g_s100_101 e0) (|<i| g_s91_92 g_s100_101) (mem g_s101_102 g_s14_16) (|>i| g_s101_102 e0) (mem g_s102_103 g_s14_16) (|>i| g_s102_103 e0) (mem g_s103_104 g_s14_16) (|>i| g_s103_104 e0) (mem g_s104_105 g_s14_16) (|>i| g_s104_105 e0) (mem g_s105_106 g_s14_16) (|>i| g_s105_106 e0) (mem g_s106_107 g_s14_16) (|>i| g_s106_107 e0) (mem g_s107_108 g_s14_16) (|>i| g_s107_108 e0) (mem g_s108_109 g_s14_16) (|>i| g_s108_109 e0) (mem g_s109_110 g_s14_16) (|>i| g_s109_110 e0) (mem g_s110_111 g_s14_16) (|>i| g_s110_111 e0) (mem g_s111_112 g_s8_10) (mem g_s111_112 g_s10_11) (mem g_s112_113 g_s14_16) (|>i| g_s112_113 e0) (mem g_s113_114 g_s84_84) (mem g_s114_115 g_s84_84) (mem g_s115_116 g_s84_84) (mem g_s116_117 g_s84_84) (mem g_s117_118 g_s84_84) (mem g_s118_119 g_s84_84) (mem g_s119_120 g_s84_84) (mem g_s120_121 g_s84_84) (mem g_s121_122 g_s14_16) (mem g_s122_123 g_s84_84) (mem g_s123_124 g_s84_84) (mem g_s124_125 g_s84_84) (mem g_s125_126 g_s84_84) (mem g_s126_127 g_s84_84) (mem g_s127_128 g_s84_84) (mem g_s128_129 g_s84_84) (mem g_s129_130 g_s84_84) (mem g_s130_131 g_s84_84) (mem g_s131_132 g_s84_84) (mem g_s132_133 g_s14_16) (|>i| g_s132_133 e0) (mem g_s133_134 g_s14_16) (|>=i| g_s133_134 e0) (mem (|+i| g_s132_133 g_s133_134) g_s14_16) (mem g_s134_135 g_s84_84) (mem g_s135_136 g_s84_84) (mem g_s136_137 g_s14_16) (mem g_s137_138 g_s14_16) (mem g_s138_139 g_s14_16) (mem g_s139_140 g_s51_52) (mem g_s140_141 g_s51_52) (mem g_s141_142 g_s51_52) (mem g_s142_145 (|+->| g_s143_144 g_s144_143)) (mem g_s145_146 (|+->| g_s143_144 g_s70_71)) (mem g_s146_147 (|+->| g_s143_144 g_s70_71)) (mem g_s147_149 (|+->| g_s148_148 g_s144_143)) (mem g_s149_150 (|+->| g_s148_148 g_s144_143)) (mem g_s150_151 (|+->| g_s148_148 g_s144_143)) (mem g_s151_152 (|+->| g_s148_148 g_s70_71)) (mem g_s152_153 (|+->| g_s148_148 g_s70_71)) (mem g_s153_154 (|+->| g_s148_148 g_s70_71)) (mem g_s154_155 (|+->| g_s148_148 g_s70_71)) (mem g_s155_156 (|+->| g_s148_148 g_s70_71)) (mem g_s156_157 (|+->| g_s148_148 g_s70_71)) (mem g_s157_159 (|+->| g_s158_158 g_s144_143)) (mem g_s159_160 (|+->| g_s158_158 g_s70_71)) (mem g_s160_161 (|+->| g_s158_158 g_s70_71)) (mem g_s161_163 (|+->| g_s162_162 g_s144_143)) (mem g_s163_164 (|+->| g_s162_162 g_s70_71)) (mem g_s164_165 (|+->| g_s162_162 g_s70_71)) (mem g_s165_166 (|>+>| g_s64_65 g_s70_71)) (mem g_s166_167 (|>+>| g_s64_65 g_s70_71)) (mem g_s167_169 (|+->| g_s168_168 g_s144_143)) (mem g_s169_170 (|+->| g_s168_168 g_s70_71)) (mem g_s170_171 (|+->| g_s168_168 g_s70_71)) (mem g_s171_172 (|+->| g_s168_168 g_s70_71)) (mem g_s172_173 (|+->| g_s168_168 g_s70_71)) (mem g_s173_174 (|+->| g_s168_168 g_s70_71)) (mem g_s174_175 (|+->| g_s168_168 g_s70_71)) (mem g_s175_177 (|+->| g_s176_176 g_s70_71)) (mem g_s177_178 (|+->| g_s176_176 g_s70_71)) (mem g_s178_180 (|+->| g_s179_179 g_s144_143)) (mem g_s180_181 (|+->| g_s179_179 g_s70_71)) (mem g_s181_182 (|+->| g_s179_179 g_s70_71)) (mem g_s182_183 (|+->| g_s179_179 g_s70_71)) (mem g_s183_184 (|+->| g_s179_179 g_s70_71)) (mem g_s184_186 (|+->| g_s185_185 g_s144_143)) (mem g_s186_187 (|+->| g_s185_185 g_s70_71)) (mem g_s187_188 (|+->| g_s185_185 g_s70_71)) (mem g_s188_189 (|+->| g_s185_185 g_s70_71)) (mem g_s189_190 (|+->| g_s185_185 g_s70_71)) (mem g_s190_192 (|+->| g_s191_191 g_s144_143)) (mem g_s192_193 (|+->| g_s191_191 g_s70_71)) (mem g_s193_194 (|+->| g_s191_191 g_s70_71)) (mem g_s194_195 (|+->| g_s191_191 g_s70_71)) (mem g_s195_196 (|+->| g_s191_191 g_s70_71)) (mem g_s196_198 (|+->| g_s197_197 g_s144_143)) (mem g_s198_199 (|+->| g_s197_197 g_s70_71)) (mem g_s199_200 (|+->| g_s197_197 g_s70_71)) (mem g_s200_201 (|+->| g_s197_197 g_s70_71)) (mem g_s201_203 (|-->| g_s202_202 g_s144_143)) (mem g_s203_204 (|-->| g_s202_202 g_s70_71)) (mem g_s204_206 (|+->| g_s205_205 g_s144_143)) (mem g_s206_207 (|+->| g_s205_205 g_s70_71)) (mem g_s207_209 (|-->| g_s208_208 g_s144_143)) (mem g_s209_210 (|-->| g_s208_208 g_s70_71)) (mem g_s210_211 (|+->| g_s168_168 g_s70_71)) (mem g_s211_213 (|+->| g_s212_212 g_s144_143)) (mem g_s213_214 (|+->| g_s212_212 g_s70_71)) (mem g_s214_215 (|+->| g_s212_212 g_s70_71)) (subset (dom g_s164_165) (dom g_s163_164)) (subset (dom g_s193_194) (dom g_s190_192)) (= (dom g_s206_207) (dom g_s204_206)) (= (dom g_s167_169) (dom g_s169_170)) (= (dom g_s169_170) (dom g_s170_171)) (= (dom g_s170_171) (dom g_s171_172)) (= (dom g_s171_172) (dom g_s172_173)) (= (dom g_s172_173) (dom g_s173_174)) (= (dom g_s173_174) (dom g_s174_175)) (= (binary_inter (ran g_s166_167) (ran g_s165_166)) empty)))
(define-fun |def_seext| () Bool (and (= g_s215_216 TRUE) (= g_s216_217 FALSE) (= g_s217_218 e0) (= g_s218_219 e12) (= g_s219_221 e220) (= g_s220_223 e222) (= g_s221_225 e224) (= g_s222_227 e226) (= g_s223_229 e228) (= g_s224_231 e230) (= g_s225_233 e232) (= g_s226_235 e234) (= g_s227_237 e236) (= g_s228_239 e238) (= g_s229_241 e240) (= g_s230_243 e242) (= g_s231_245 e244) (= g_s232_247 e246) (= g_s233_249 e248) (= g_s234_251 e250) (= g_s235_253 e252) (= g_s236_255 e254) (= g_s237_257 e256) (= g_s238_259 e258) (= g_s239_261 e260) (= g_s240_263 e262) (= g_s241_265 e264) (= g_s242_267 e266) (= g_s243_269 e268) (= g_s244_271 e270) (= g_s245_273 e272) (= g_s246_275 e274) (= g_s247_277 e276) (= g_s248_279 e278) (= g_s249_281 e280) (= g_s250_283 e282) (= g_s251_285 e284) (= g_s252_287 e286) (= g_s253_289 e288) (= g_s254_291 e290) (= g_s255_293 e292) (= g_s256_295 e294) (= g_s257_297 e296) (= g_s258_299 e298) (= g_s259_301 e300) (= g_s260_303 e302) (= g_s261_305 e304) (= g_s262_307 e306) (= g_s263_309 e308) (= g_s264_311 e310) (= g_s265_313 e312) (= g_s266_315 e314) (= g_s267_317 e316) (= g_s268_319 e318) (= g_s269_321 e320) (= g_s270_323 e322) (= g_s271_325 e324) (= g_s272_327 e326) (= g_s273_329 e328) (= g_s274_331 e330) (= g_s275_333 e332) (= g_s276_335 e334) (forall ((l_s277 U)) (=> (and (mem l_s277 g_s20_22) (not (= (apply g_s278_337 l_s277) empty))) (mem l_s277 (dom g_s279_336)))) (mem g_s280_338 BOOL) (mem g_s281_339 (|+->| g_s20_22 (|+->| g_s10_11 g_s10_11))) (mem g_s282_340 (|+->| g_s20_22 g_s10_11)) (mem g_s279_336 (|+->| g_s20_22 (|-->| g_s10_11 g_s10_11))) (mem g_s278_337 (|-->| g_s20_22 (POW (set_prod g_s10_11 g_s14_16)))) (mem g_s283_341 (|-->| g_s51_52 (POW g_s67_68))) (mem g_s284_343 (|+->| g_s51_52 g_s285_342)) (mem g_s286_344 (|+->| g_s51_52 g_s10_11)) (mem g_s287_345 (|+->| g_s51_52 g_s285_342)) (mem g_s288_346 (|+->| g_s51_52 g_s10_11)) (subset g_s289_347 g_s51_52) (subset g_s290_348 g_s51_52) (mem g_s291_349 g_s10_11) (mem g_s292_350 BOOL) (subset g_s293_351 g_s64_65) (subset g_s294_352 g_s64_65) (subset g_s295_354 g_s296_353) (subset g_s297_356 g_s298_355) (subset g_s299_357 g_s296_353) (mem g_s300_358 (|+->| g_s296_353 g_s10_11))))
(define-fun |def_mchcst| () Bool true)
(define-fun |def_aprp| () Bool true)
(define-fun |def_abs| () Bool true)
(define-fun |def_inv| () Bool  (mem g_s301$1_359 BOOL))
(define-fun |def_ass| () Bool true)
(define-fun |def_sets| () Bool true)
(define-fun |def_imlprp| () Bool true)
(define-fun |def_imprp| () Bool true)
(define-fun |def_imext| () Bool true)
; PO group 0 
(assert |def_B definitions|)
(assert |def_ctx|)
(assert |def_mchcst|)
(assert |def_aprp|)
(assert |def_imlprp|)
(assert |def_imprp|)
(assert |def_imext|)
(assert |def_seext|)
(assert |def_abs|)
(assert |def_inv|)
(assert |def_ass|)
(assert (= g_s303$1_361 g_s303_360))
(define-fun lh_1 () Bool (mem (mapplet (apply g_s288_346 g_s304_362) g_s96_97) (apply g_s278_337 (apply g_s63_64 g_s304_362))))
(define-fun lh_2 () Bool (mem g_s304_362 (dom g_s288_346)))
(define-fun lh_3 () Bool (mem g_s304_362 g_s290_348))
(define-fun lh_4 () Bool (= g_s280_338 TRUE))
(define-fun lh_5 () Bool (not (= g_s304_362 g_s139_140)))
(define-fun lh_6 () Bool (mem g_s304_362 g_s2_3))
(define-fun lh_7 () Bool (mem g_s304_362 g_s51_52))
(define-fun lh_8 () Bool (mem g_s305_363 g_s6_7))
(define-fun lh_9 () Bool (mem g_s305_363 g_s70_71))
(define-fun lh_10 () Bool (= (bool (mem g_s305_363 g_s67_68)) TRUE))
; PO 1 in group 0
(assert (not (=> (and lh_1 lh_2 lh_3 lh_4 lh_5 lh_6 lh_7 lh_8 lh_9 lh_10) (mem g_s305_363 g_s67_68))))
(check-sat)
(exit)